12547.0
1 0 1 0 0 1 1 1 1 0 0 1 0 1 1 0 0 1 0 1 1 0 0 0 1 1 0 0 0 1 
20 11 20 2 20 5 2 24 14 17 24 8 8 20 19 14 14 17 5 11 2 0 5 17 5 8 19 24 5 24 5 25 6 25 20 20 24 24 0 14 0 14 24 8 24 14 0 13 11 8 29 14 14 5 13 20 17 11 11 14 0 5 20 11 11 11 24 0 24 24 20 6 11 17 5 8 24 20 14 24 20 7 13 17 19 17 17 7 20 5 2 24 17 11 17 24 2 2 25 20 8 17 17 25 2 29 17 11 14 8 14 14 2 11 11 25 24 24 5 24 5 8 25 13 8 0 5 24 0 29 0 11 24 5 8 14 7 5 20 17 0 8 20 14 8 25 25 5 2 5 